%nprocshared=30
%mem=30GB
%chk= 0.chk
# freq opt=tight b3lyp 6-31g(d)

good luck!

0 1
O     -0.196626   -2.410706   -0.242875
C     -0.162221   -1.191348   -0.098583
C      1.152639   -0.508768   -0.013874
C      1.365306    0.573720    0.848642
C      2.621152    1.181886    0.903226
C      3.665235    0.704118    0.110645
C      3.461522   -0.388529   -0.731899
C      2.208520   -0.999759   -0.790417
C     -1.434485   -0.442273   -0.015414
C     -2.563773   -1.057749    0.527534
C     -3.763317   -0.353032    0.591886
C     -3.791349    0.942838    0.100745
N     -2.721531    1.562242   -0.446428
C     -1.569207    0.850463   -0.505117
H      0.574665    0.943509    1.496583
H      2.789678    2.023325    1.571357
H      4.643495    1.176965    0.158146
H      4.279675   -0.768873   -1.338675
H      2.056714   -1.859153   -1.440712
H     -2.509806   -2.079640    0.896115
H     -4.654989   -0.806162    1.011135
H     -4.703658    1.532602    0.129621
H     -0.747639    1.374323   -0.985311

