%nprocshared=30
%mem=30GB
%chk= 2.chk
# freq opt=tight b3lyp 6-31g(d)

good luck!

0 1
O      0.156999    0.096750   -2.545287
C      0.171626    0.036529   -1.318914
C     -1.110169   -0.101315   -0.584544
C     -1.219060   -0.900760    0.559911
C     -2.447229   -1.012852    1.214924
C     -3.566310   -0.340063    0.723320
C     -3.464964    0.438781   -0.429315
C     -2.240061    0.553670   -1.087762
C      1.467219    0.108621   -0.611021
C      1.616437    0.697866    0.646229
C      2.878784    0.734072    1.236041
C      3.947644    0.187040    0.542771
N      3.838841   -0.375457   -0.680184
C      2.601973   -0.390797   -1.237152
H     -0.366672   -1.456953    0.941151
H     -2.535856   -1.634300    2.102936
H     -4.523122   -0.433141    1.231915
H     -4.341037    0.950549   -0.820232
H     -2.167727    1.152164   -1.993872
H      0.773630    1.145421    1.165165
H      3.028304    1.186193    2.210637
H      4.950217    0.192775    0.961905
H      2.550531   -0.834792   -2.228624

