%nprocshared=30
%mem=30GB
%chk= 0.chk
# freq opt=tight b3lyp 6-31g(d)

good luck!

0 1
O     -1.896575    0.642989    1.870724
C     -1.630138    0.295887    0.717173
C     -0.195121    0.108494    0.339339
C      0.783435    0.337578    1.319760
C      2.138431    0.177919    1.022877
C      2.529028   -0.211934   -0.255474
C      1.566842   -0.442200   -1.236828
C      0.208570   -0.283536   -0.944157
C     -2.690268    0.048314   -0.342674
F     -3.959301    0.247610    0.107691
F     -2.655721   -1.227404   -0.822997
F     -2.541349    0.863195   -1.425796
H      0.497934    0.643105    2.325599
H      2.887247    0.358291    1.790633
H      3.584255   -0.336481   -0.487400
H      1.875280   -0.746752   -2.234799
H     -0.502548   -0.475076   -1.743670

