%nprocshared=10
%mem=12GB
%chk= 0.chk
# freq b3lyp/6-31g(d)

good luck!

0 1
C     -1.382503    0.004845   -2.283161
C     -0.752670    0.002650   -1.250699
C      0.000000    0.000000    0.000000
O      1.217995   -0.000000   -0.000000
C     -0.830716    0.002650    1.266357
H     -1.923733    0.006746   -3.203114
H     -1.483834   -0.877989    1.291789
H     -0.169381    0.002452    2.135196
H     -1.480999    0.885438    1.290040


